row=7;
column=7;
left=[2, 4, 0, 0, 0, 0, 0];
right=[0, 4, 0, 3, 0, 0, 0];
top=[2, 4, 3, 0, 0, 0, 0];
bottom=[2, 1, 3, 2, 0, 0, 0];
Board=[|6,3,1,5,2,7,4|0,4,0,7,6,2,1|5,6,0,2,0,0,0|1,5,0,4,3,6,2|0,2,6,1,7,5,3|0,1,2,3,5,0,6|0,7,4,0,1,0,0|]